This is Ipopt version 3.10.0, running with linear solver ma27.

Number of nonzeros in equality constraint Jacobian...:        0
Number of nonzeros in inequality constraint Jacobian.:       48
Number of nonzeros in Lagrangian Hessian.............:        0

Total number of variables............................:        6
                     variables with only lower bounds:        3
                variables with lower and upper bounds:        3
                     variables with only upper bounds:        0
Total number of equality constraints.................:        0
Total number of inequality constraints...............:        8
        inequality constraints with only lower bounds:        0
   inequality constraints with lower and upper bounds:        0
        inequality constraints with only upper bounds:        8

iter    objective    inf_pr   inf_du lg(mu)  ||d||  lg(rg) alpha_du alpha_pr  ls
   0  3.8391941e+00 3.28e+00 1.01e+00   0.0 0.00e+00    -  0.00e+00 0.00e+00   0
   1  4.9643026e+00 1.28e+00 5.89e+00  -0.4 2.27e+00    -  7.93e-01 9.98e-01f  1
   2  5.4392436e+00 9.55e-01 2.36e+00  -0.2 1.01e+00    -  7.35e-01 3.97e-01h  1
   3  6.4741746e+00 7.65e-01 7.95e+00  -0.6 2.17e+00    -  6.17e-01 4.83e-01h  1
   4  8.1328858e+00 4.62e-01 3.14e+00  -0.7 1.96e+00    -  6.37e-01 3.74e-01h  1
   5  1.1647955e+01 1.53e-01 5.55e+00  -1.0 1.77e+00    -  1.00e+00 7.19e-01h  1
   6  1.3466500e+01 7.92e-03 3.31e+00  -1.2 9.30e-01    -  9.97e-01 1.00e+00h  1
   7  1.1980884e+01 9.88e-03 1.07e+01  -2.0 7.49e-01    -  1.00e+00 1.00e+00f  1
   8  1.1590505e+01 1.31e-02 2.98e+00  -2.8 4.42e-01    -  1.00e+00 8.98e-01f  1
   9  1.1854673e+01 0.00e+00 1.45e+00  -1.4 1.76e-01    -  9.50e-01 1.00e+00f  1
iter    objective    inf_pr   inf_du lg(mu)  ||d||  lg(rg) alpha_du alpha_pr  ls
  10  1.1241869e+01 6.28e-03 3.50e+00  -1.5 3.08e-01    -  1.00e+00 1.00e+00f  1
  11  9.9965352e+00 2.40e-02 1.56e+00  -1.9 8.43e-01    -  1.00e+00 1.00e+00f  1
  12  9.9524492e+00 4.44e-03 2.58e-01  -3.1 9.06e-02    -  1.00e+00 9.85e-01h  1
  13  9.8777261e+00 5.40e-03 6.39e-01  -3.8 6.08e-02    -  1.00e+00 9.96e-01h  1
  14  9.8175761e+00 1.24e-02 5.08e-01  -4.7 4.23e-02    -  1.00e+00 8.38e-01H  1
  15  9.7575825e+00 9.23e-03 1.39e-01  -5.5 1.00e-01    -  6.25e-01 1.00e+00H  1
  16  9.6764058e+00 1.37e-02 3.65e-01  -5.1 1.14e-01    -  3.15e-02 1.00e+00H  1
  17  9.7657511e+00 3.23e-03 5.43e-01  -3.1 1.68e-01    -  1.00e+00 2.96e-01h  1
  18  9.8149631e+00 0.00e+00 4.65e-02  -4.2 2.28e-02    -  1.00e+00 1.00e+00h  1
  19  9.7198262e+00 3.32e-03 2.27e-01  -5.7 5.35e-02    -  1.00e+00 1.00e+00h  1
iter    objective    inf_pr   inf_du lg(mu)  ||d||  lg(rg) alpha_du alpha_pr  ls
  20  9.6792757e+00 3.84e-03 1.14e-01  -4.8 3.30e-02    -  4.60e-01 1.00e+00H  1
  21  9.7839982e+00 0.00e+00 4.01e-01  -5.7 5.06e-02    -  1.00e+00 1.00e+00h  1
  22  9.7058896e+00 4.00e-03 7.30e-02  -6.4 3.66e-02    -  1.00e+00 1.00e+00h  1
  23  9.6762424e+00 3.33e-03 4.96e-01  -7.6 3.49e-02    -  9.92e-01 1.00e+00H  1
  24  9.6758585e+00 3.07e-03 6.24e-01  -5.6 3.66e-02    -  1.00e+00 1.39e-01H  1
  25  9.6741370e+00 6.69e-04 2.69e-01  -6.5 1.04e-02    -  1.00e+00 1.00e+00h  1
  26  9.6569529e+00 3.17e-03 2.21e-01  -6.6 1.10e-02    -  1.00e+00 1.00e+00h  1
  27  9.6235623e+00 5.21e-03 2.06e-01  -8.0 2.14e-02    -  1.00e+00 1.00e+00H  1
  28  9.6107936e+00 6.97e-03 1.52e-01  -8.7 4.46e-02    -  2.40e-01 1.00e+00H  1
  29  9.7434096e+00 9.65e-05 9.83e-01  -6.2 7.95e-02    -  7.63e-04 1.00e+00h  1
iter    objective    inf_pr   inf_du lg(mu)  ||d||  lg(rg) alpha_du alpha_pr  ls
  30  9.7114506e+00 0.00e+00 8.72e-01  -7.0 6.04e-02    -  1.00e+00 3.39e-01h  1
  31  9.6647029e+00 1.11e-03 3.37e-01  -7.0 2.45e-02    -  1.00e+00 1.00e+00f  1
  32  9.6397135e+00 2.06e-03 9.86e-02  -6.7 1.23e-02    -  8.72e-01 1.00e+00H  1
  33  9.6422319e+00 5.71e-04 3.83e-01  -4.3 2.05e-02    -  1.00e+00 9.98e-01H  1
  34  9.6371151e+00 4.62e-04 2.11e-01  -6.0 4.91e-03    -  1.00e+00 1.00e+00h  1
  35  9.6378323e+00 4.87e-04 2.26e-01  -4.4 3.50e-02    -  1.00e+00 6.25e-02h  5
  36  9.6421986e+00 1.95e-04 1.53e-01  -6.1 3.28e-03    -  1.00e+00 1.00e+00h  1
  37  9.6421496e+00 2.12e-03 1.07e-01  -5.8 5.79e-03    -  1.00e+00 2.50e-01h  3
Exception of type: IpoptException in file "Unknown File" at line -1:
 Exception message: Unknown Exception caught in Ipopt
